row=6;
column=6;
left=[0, 0, 6, 15, 12, 0];
right=[13, 0, 20, 0, 11, 0];
top=[0, 11, 13, 0, 15, 13];
bottom=[11, 0, 0, 0, 6, 12];
Board=[|0,0,0,0,0,0|0,0,0,0,0,0|0,0,0,0,3,0|0,0,0,0,0,0|0,0,0,0,0,0|0,0,0,0,0,0|]